(set-logic QF_SLIA)
(declare-fun var0 () String)
(assert (str.in_re var0 (re.++ ((_ re.loop 14 372) (re.++ (re.union (str.to_re "f") (re.union (str.to_re "0i") (re.union (str.to_re "-I+") (str.to_re "{")))) (re.++ (re.union (str.to_re "A#t") (re.union (str.to_re "^x0") (re.union (str.to_re "qSK") (str.to_re "*_(")))) (re.++ (re.union (str.to_re "RS") (re.union (str.to_re "0") (re.union (str.to_re "IP>") (str.to_re "f")))) (re.union (str.to_re "|,") (re.union (str.to_re "hIa") (re.union (str.to_re "n") (str.to_re "|S\u0022")))))))) (re.++ ((_ re.loop 8 679) (re.++ (re.union (str.to_re "D4i") (re.union (str.to_re "Mn~") (re.union (str.to_re "1Y#") (str.to_re "fb$")))) (re.++ (re.union (str.to_re "q") (re.union (str.to_re "xF") (re.union (str.to_re "v{r") (str.to_re "ex")))) (re.++ (re.union (str.to_re "t3") (re.union (str.to_re "g|") (re.union (str.to_re "?J") (str.to_re "}\u0022")))) (re.union (str.to_re "T") (re.union (str.to_re "9") (re.union (str.to_re "[`") (str.to_re "gh")))))))) (re.++ ((_ re.loop 4 50) (re.++ (re.union (str.to_re "I") (re.union (str.to_re "c,2") (re.union (str.to_re "NJ") (str.to_re "{=u")))) (re.++ (re.union (str.to_re "z") (re.union (str.to_re "D8g") (re.union (str.to_re "0#:") (str.to_re "8")))) (re.++ (re.union (str.to_re "\\T") (re.union (str.to_re "%@") (re.union (str.to_re "L@T") (str.to_re "B6")))) (re.union (str.to_re "fh2") (re.union (str.to_re "K?t") (re.union (str.to_re "g.%") (str.to_re "xW")))))))) ((_ re.loop 3 744) (re.++ (re.union (str.to_re "|'") (re.union (str.to_re "`KJ") (re.union (str.to_re "}<") (str.to_re "{X")))) (re.++ (re.union (str.to_re "_#") (re.union (str.to_re "}?") (re.union (str.to_re "Kt0") (str.to_re "Hk")))) (re.++ (re.union (str.to_re "8O") (re.union (str.to_re "zk") (re.union (str.to_re "M") (str.to_re "*")))) (re.union (str.to_re "1\\") (re.union (str.to_re "%") (re.union (str.to_re "rMo") (str.to_re "I48")))))))))))))
(assert (not (str.in_re var0 (re.++ ((_ re.loop 20 218) (re.++ (re.union (str.to_re "N'") (re.union (str.to_re "\u0022X") (re.union (str.to_re "I") (str.to_re "R!&")))) (re.++ (re.union (str.to_re "y") (re.union (str.to_re "l") (re.union (str.to_re "Zi") (str.to_re "@")))) (re.++ (re.union (str.to_re ">X") (re.union (str.to_re "z}/") (re.union (str.to_re "3Vf") (str.to_re "z%")))) (re.union (str.to_re "AD+") (re.union (str.to_re "dX") (re.union (str.to_re "%D7") (str.to_re "|6P")))))))) (re.++ ((_ re.loop 9 698) (re.++ (re.union (str.to_re "2T") (re.union (str.to_re "h") (re.union (str.to_re "[") (str.to_re "dc")))) (re.++ (re.union (str.to_re ",*") (re.union (str.to_re "%") (re.union (str.to_re "+\\9") (str.to_re "G-")))) (re.++ (re.union (str.to_re "n") (re.union (str.to_re "kJ") (re.union (str.to_re "Z63") (str.to_re "[l")))) (re.union (str.to_re "W/") (re.union (str.to_re "_") (re.union (str.to_re "q^") (str.to_re "N{")))))))) (re.++ ((_ re.loop 10 160) (re.++ (re.union (str.to_re "'") (re.union (str.to_re "tl5") (re.union (str.to_re "N") (str.to_re "\u0022")))) (re.++ (re.union (str.to_re "j:") (re.union (str.to_re "??R") (re.union (str.to_re "z") (str.to_re "3y")))) (re.++ (re.union (str.to_re "KL") (re.union (str.to_re "s") (re.union (str.to_re "^") (str.to_re "!:")))) (re.union (str.to_re "y^4") (re.union (str.to_re ";") (re.union (str.to_re "gC") (str.to_re "3@")))))))) ((_ re.loop 19 843) (re.++ (re.union (str.to_re ">") (re.union (str.to_re "6W5") (re.union (str.to_re "M") (str.to_re "ERq")))) (re.++ (re.union (str.to_re "|js") (re.union (str.to_re "Vah") (re.union (str.to_re "c") (str.to_re "o/m")))) (re.++ (re.union (str.to_re "ISd") (re.union (str.to_re "4.") (re.union (str.to_re "Kh2") (str.to_re ";b")))) (re.union (str.to_re "k") (re.union (str.to_re "pkm") (re.union (str.to_re "7") (str.to_re "F@m"))))))))))))))
(assert (not (str.in_re var0 (re.++ (re.* re.allchar) (re.++ (re.union (str.to_re "<") (re.union (str.to_re ">") (re.union (str.to_re "'") (re.union (str.to_re "\u0022") (str.to_re "&"))))) (re.* re.allchar))))))
(assert (<= 50 (str.len var0)))
(check-sat)
(get-model)
